#LAMMPS NiSi2 isolobal test

units            metal
boundary         p p p
atom_style       atomic
variable         TI equal 0.005
read_data        NiSi2.data

mass             1 58.6934
mass             2 28.0855
mass             3 1.00000

pair_style       table linear 1998
pair_coeff       1 1 fd.pair FD-Ni-Ni
pair_coeff       1 2 potfit_eopp.pair eopp-Ni-Si
pair_coeff       2 2 potfit_eopp.pair eopp-Si-Si
pair_coeff       1 3 inv_gauss.pair inv_gauss-Ni-D
pair_coeff       2 3 inv_gauss.pair inv_gauss-Si-D
pair_coeff       3 3 fd.pair FD-D-D

timestep         0.001
thermo           1000
neighbor         0.6 bin
neigh_modify     every 1 delay 0 check yes

variable         STEP equal step
variable         PE equal pe
variable         ETOTAL equal etotal
variable         TEMP equal temp
variable         PRESS equal press
variable         VOL equal vol
variable         EPAIR equal epair 

thermo_style     custom step pe epair etotal press atoms

fix              extra all print 1000 "${STEP} ${VOL} ${TEMP} ${PRESS} ${PE} ${ETOTAL}" file NiSi2_data.out title "# N V T P potential Etot"
dump             1 all atom 100 NiSi2_dump.out

min_style        sd
minimize         0.0 1.0e-10 1000 10000
